
  32   50
   9   15    8   11    9   10   17   11   11   12   16   10   23   20    6    5    4    6   17    9   25    9   15   11   12    5    7    0   20    7    5   17    0    0    0    0    0    0    0    0    0    0    0    0    0    0    0    0    0    0

   0   0   0   0   0   0   0   0   0   0   0   0   0   0   0   0   0   0   0   0   0   0   0   0   0   0   0   0   0   0   0   0   0   0   0   0   0   0   0   0   0   0   0   0   0   0   0   0   0   0   0   7 2 4 5 7 8 13 14 
   3   7   0   0   0   0   0   0   0   0   0   0   0   0   0   0   0   0   0   0   0   0   0   0   0   0   5   0   0   8   0   5  10   0   0   0   0   0   0   0   0   0   0   0   0   0   0   0   0   0   0   6 31 22 20 11 9 3 
   2   0   0   0   0   0   0   0   0   0   0  10   0   0   0   0   0   0   0   4   0   0   0   0   0   8   0   0   0   0   0   4   0   0   0   0   0   0   0   0   0   0   0   0   0   0   0   0   0   0   0   3 30 18 6 
   4   0   0   0   0   0   5   0   0   0   0   0   2   0   0   0   0   0   0   0   0   0   0   3   0   0   0   0   0   6   0   0   0   0   0   0   0   0   0   0   0   0   0   0   0   0   0   0   0   0   0   8 29 28 27 26 21 18 17 15 
   3   0   0   0   0   7   0   0   4   0   0   0   0   0   5   0   0   0   0   0   0   0   9   0   0  10   0   0   0   0   0   0   2   0   0   0   0   0   0   0   0   0   0   0   0   0   0   0   0   0   0   5 30 27 19 16 10 
  10   0   0   2   1   2   0   0   0   0   0   0   0   2   0   0   0   0   0   0   0   2   0   0   0   0   0   0   0   0   0   0   0   0   0   0   0   0   0   0   0   0   0   0   0   0   0   0   0   0   0   6 28 27 24 19 17 12 
   9   0   0   0   0   0   0   0   0   0   0   0   0   0   0   0   0   4   0   0   0   0   0   0   0   0   0   0   0   0   0   0   5   0   0   0   0   0   0   0   0   0   0   0   0   0   0   0   0   0   0   8 31 27 26 24 21 20 17 16 
   4   0   0   0   8   0   0   0   0   0   0   0   0   0   2   0   0   0   6   0   0   0   0   0   0   0   0   0   0   6   0   0   0   0   0   0   0   0   0   0   0   0   0   0   0   0   0   0   0   0   0   5 29 27 18 17 15 
   9   0   0   0   1   0   0   0   6   0   0   0   0   0   0   0   0   0   1   0   0  10   0  10   2   5   0   0   0   9   0   0   0   0   0   0   0   0   0   0   0   0   0   0   0   0   0   0   0   0   0   6 28 27 25 24 23 19 
   6   0   0   0   0   0   0   0   0   0   5   0   8   0   0   0   0   0   0   4   0  10   0   0   0   0   0   0   0   0   0   0   0   0   0   0   0   0   0   0   0   0   0   0   0   0   0   0   0   0   0   5 29 28 24 23 17 
   1   0   0   0   0   0   0   0   0   0   0   0   0   0   4   6   0   0   0   0   0   0   0   0  10   0   0   7   0   0   0   0   0   0   0   0   0   0   0   0   0   0   0   0   0   0   0   0   0   0   0   3 25 18 15 
   7   0   0   0   6   0   0   0   0   0   0   0   0   0   5   0   0   0   0   0   0   0   0   5   0   7   0   0   0   0   0   0   2   0   0   0   0   0   0   0   0   0   0   0   0   0   0   0   0   0   0   4 29 26 25 16 
   9   0   0   0   0   0   0   0   7   0   0   0   0   5   1   0   0   0   0   0   8   4   0   0   0   0   0   0   0   0   0   0   4   0   0   0   0   0   0   0   0   0   0   0   0   0   0   0   0   0   0   3 30 26 16 
   9   0   0   0   0   0   0   0   0   0   0  10   0   0   0   0   0   0   0   4   0   0   0   0   0   0   0   0   0   0   7   0   0   0   0   0   0   0   0   0   0   0   0   0   0   0   0   0   0   0   0   3 28 26 24 
   5   5   0   0   0   0  10   0   0  10   0   0   0   0   0   0   0   0   1   0   0   7   0   0   0   0   0   0   0   0   0   0   0   0   0   0   0   0   0   0   0   0   0   0   0   0   0   0   0   0   0   2 24 16 
   8   0   0   0   0   0   9  10   0   0   0   0   0   0   1   0   0   0   0   0   0   0   7   3   3   0   2   0   0   0   0   0   0   0   0   0   0   0   0   0   0   0   0   0   0   0   0   0   0   0   0   1 23 
   6   9   0   0   0   0   0   0   0   9   0   0   0   0  10   0   0   0   0   0   0   0   0   0   0   0   0   2   0   0   0   0   0   0   0   0   0   0   0   0   0   0   0   0   0   0   0   0   0   0   0   1 25 
   9   0  10   0   0   0   0   0   0   0   0   0   0   0   3   0   0   0   0   0   0   1   0   0   0   0   0   0   0   0   0   0   0   0   0   0   0   0   0   0   0   0   0   0   0   0   0   0   0   0   0   1 23 
   8   0   0   0   5   0   0   0   0   0   0   0   0   9   0   0   0   0   0   0   0   0   0   0   0   0   0   0   0   0   0   0   0   0   0   0   0   0   0   0   0   0   0   0   0   0   0   0   0   0   0   1 26 
   8   0   0   0   0   0   0   0   0   0   0   0   0   4   8   3   0   0   0   0   0   0   0   0   0   0   0   0   0   0   0   0   0   0   0   0   0   0   0   0   0   0   0   0   0   0   0   0   0   0   0   1 23 
   8   0   0   0   2   0   0   0   0   0   0   0   5   7   0   0   2   0   0   0   2   0   0   0   2   0   0   0   0   0   0   1   0   0   0   0   0   0   0   0   0   0   0   0   0   0   0   0   0   0   0   1 23 
  10   0   0   7   0   0   0   0   0   0   0   0   0   0   0   0   0   0   0  10   2   0   0   0   0   0   0   0   0   6   0   0   0   0   0   0   0   0   0   0   0   0   0   0   0   0   0   0   0   0   0   1 24 
   1   0   0   0   6   0   7   3   0   0   5   8   0   5   0   0   0   0   0   0   0   8   0   0   0   0   0   0   0   0   0   0   0   0   0   0   0   0   0   0   0   0   0   0   0   0   0   0   0   0   0   1 32
  10   0   0   0   0   0   0  10   0   4   0   0   0   0   1   0   0   0   0   0   0   0   0   0   0   0   0   0   0   0   0   0   0   0   0   0   0   0   0   0   0   0   0   0   0   0   0   0   0   0   0   1 32
   7   0   0   0   5   6   0   0   0   0   0   0  10   0   0   0   3   0   0   0   0   0   0   0   0   0   0   0   0   0   0   0   0   0   0   0   0   0   0   0   0   0   0   0   0   0   0   0   0   0   0   1 32
  10   0   0   0   0   0   0   0   8   0   9   0   0   5   0   0   0   0   0   0   0   0   0   0   0   0   0   0   0   0   0   0   0   0   0   0   0   0   0   0   0   0   0   0   0   0   0   0   0   0   0   1 32
   4   0   0   0   0   4   0   0   0   0   0   0   0  10   2   0   0   0   0   0   0   3   0   0   0   0   0   0   0   5   0   1   0   0   0   0   0   0   0   0   0   0   0   0   0   0   0   0   0   0   0   1 32
   4   0   0   0   0   0   0   0   0   0   0   0   0   0   0   0   0   0   0   4   0   0   0   0  10   0   0   0   0   0   0   0   0   0   0   0   0   0   0   0   0   0   0   0   0   0   0   0   0   0   0   1 32
  10   0   0   0   0   5   0   1   0   0   0   0   0   0   0   4   0   0   0   0   6   0   0   8   0   0   0   0   0   0   0   0   0   0   0   0   0   0   0   0   0   0   0   0   0   0   0   0   0   0   0   1 32
   1   3   9   0   0   0   2   0   0   0  10   0   0   0   0   0   0   0   0   0   1   1   0   0   0   0   0   0   0   0   0   0  10   0   0   0   0   0   0   0   0   0   0   0   0   0   0   0   0   0   0   1 32
   6   0   0   0   0   0   0   0   3   0   0   2   0   0   0   0   4   0   0   0   0   0   0   8   0   9   0   0   0   0   0   0   0   0   0   0   0   0   0   0   0   0   0   0   0   0   0   0   0   0   0   1 32
   0   0   0   0   0   0   0   0   0   0   0   0   0   0   0   0   0   0   0   0   0   0   0   0   0   0   0   0   0   0   0   0   0   0   0   0   0   0   0   0   0   0   0   0   0   0   0   0   0   0   0   0 
